; Automatically generated by map2smt

(set-logic HORN)




(declare-fun new2 (Bool) Bool)
(declare-fun new1 (Int Int Bool) Bool)
(declare-fun ff () Bool)

(assert
  (forall ( (A Bool) )
    (=>
      (= A true)
      (new2 A)
    )
  )
)
(assert
  (forall ( (A Bool) )
    (=>
      (new2 A)
      (new2 A)
    )
  )
)
(assert
  (forall ( (A Int) (B Bool) )
    (=>
      (new2 B)
      (new1 A A B)
    )
  )
)
(assert
  (forall ( (A Int) (B Bool) )
    (=>
      (new1 A A B)
      (new1 A A B)
    )
  )
)
(assert
  (forall ( (A Bool) (B Int) )
    (=>
      (and
        (= A false)
        (new1 B B A)
      )
      ff
    )
  )
)

(assert (not ff))
(check-sat)
